treewidth/data/OddGraph_4.gr
p tw 35 70
1 30
1 10
1 12
1 25
2 13
2 34
2 35
2 7
13 3
13 10
13 11
24 33
24 4
24 5
24 6
30 14
30 28
30 29
31 3
31 15
31 16
31 27
32 7
32 9
32 15
32 18
33 11
33 15
33 29
34 17
34 27
34 29
35 4
35 25
35 26
3 14
3 22
4 14
4 21
5 7
5 12
5 22
6 10
6 16
6 17
7 28
8 17
8 19
8 22
8 25
9 10
9 20
9 21
11 19
11 23
12 23
12 27
14 18
15 25
16 26
16 28
17 18
18 23
19 21
19 28
20 22
20 26
20 29
21 27
23 26
