treewidth/data/OddGraph_4.td
c width = 12, time = 3.192465
s td 17 13 35
b 1 1 2 5 10 14 17 20 21 23 25 28 31 33
b 2 2 5 10 14 17 20 21 22 23 25 28 31 33
b 3 2 10 11 14 17 21 22 23 25 28 31 33
b 4 2 3 10 11 13 14 22 31
b 5 8 11 17 19 21 22 25 28
b 6 2 5 10 14 17 20 21 23 25 26 28 31 33
b 7 2 5 10 14 17 21 24 25 26 28 31 33
b 8 2 4 14 21 24 25 26 35
b 9 6 10 16 17 24 26 28 31
b 10 2 5 10 14 17 20 21 23 25 28 31 32 33
b 11 2 5 7 28 32
b 12 9 10 20 21 32
b 13 15 25 31 32 33
b 14 14 17 18 23 32
b 15 1 2 5 14 17 20 21 23 28 31 33 34
b 16 1 5 12 21 23 27 31 34
b 17 1 14 20 28 29 30 33 34
3 4
3 5
2 3
1 2
7 8
7 9
6 7
1 6
10 11
10 12
10 13
10 14
1 10
15 16
15 17
1 15
